10,6	0,0	8,2	13,6	0,0	0,0	0,0	0,0	0,0	8,3
19,1	17,7	0,0	16,8	11,3	0,0	0,0	12,5	0,0	0,0
0,0	0,0	6,9	0,0	15,5	17,6	0,0	0,0	9,2	0,0
14,1	0,0	14,6	0,0	0,0	0,0	13,7	0,0	0,0	0,0
0,0	9,2	0,0	16,2	5,3	0,0	0,0	14,6	0,0	0,0
0,0	17,6	17,2	0,0	12,8	12,5	0,0	0,0	19,5	0,0
0,0	14,6	0,0	16,6	0,0	0,0	19,6	0,0	0,0	11,8
9,6	0,0	7,9	0,0	0,0	0,0	0,0	0,0	0,0	11,1
0,0	16,0	0,0	8,9	17,8	0,0	0,0	9,4	0,0	0,0
0,0	0,0	9,6	0,0	0,0	15,5	19,7	0,0	0,0	12,5
									
2,7	2,7	2,8	3,5	4,1	5,0	4,4	2,8	3,6	3,5
